7,1,1,1,6,3,6,5,1,6,5,7,2,7,5,8;6,1,6,2,1,2,1,3,5,6,6,6,3,7,4,9;3,1,2,2,4,3,2,3,2,4,8,6,3,6,3,8;8,1,5,2,5,3,5,4,6,4,8,3,7,4,3,4,8,7,7,7,6,7,2,9;2,1,8,2,1,4,1,5,4,4,3,5,4,7,4,8,7,9,5,9;4,2,3,3,7,6,8,8,1,8,1,9,3,9;5,1,4,1,5,5,8,4,4,6,2,5,7,8;7,2,7,3,4,5,1,7,2,6,6,8,2,8;3,2,7,5,8,5,8,9,6,9;
